%%
%% Dumbbell weights.
%% To be used with http://hakank.org/minizinc/weights.mzn
%%
%% Note: In order to work, one must have four weight plates for a certain
%% weight, i.e. one plate of each side of the dumbbell, and we have two dumbbells.
%% If you have four 2kg plates, then it's represented as a 1 in weight_avail.
%%
bell_type = "dumbbell";
num_weights = 10; % total number of weights
req_weights = 4; % 4 weights in total (two dumbbells and two on each barbell)
%% the weights (in kg)
weights =      [0.50,1.0,1.25,2.0,2.5,5.0,10.0,20.0,25.0,50.0];
%% number of weight plates available. Divide the total number of weight plates by 4 
%% Eg. I have 12 0.5kg weights -> 3 in weight_avail, and 4 1.0kg weights (-> 1), etc.
weight_avail = [   3,  1,  1,   1,  0,  1,   0,   0,   0,   0];  
bell_weight = 1.5;
